graph_generation/data/cp/tcsp/hexagonal_lattice_N_6_task_random.dzn
nodes = 96;
edges = 220;
starts = [1, 1, 2, 3, 3, 4, 5, 6, 7, 7, 8, 9, 10, 11, 11, 12, 13, 15, 15, 16, 17, 18, 19, 19, 21, 22, 23, 23, 24, 25, 25, 27, 28, 28, 29, 30, 31, 32, 33, 35, 36, 36, 37, 38, 38, 39, 40, 40, 42, 43, 43, 44, 45, 45, 46, 47, 47, 48, 49, 49, 51, 52, 53, 54, 56, 57, 58, 58, 59, 60, 60, 61, 62, 62, 63, 64, 65, 66, 66, 67, 68, 68, 70, 71, 73, 73, 74, 75, 75, 76, 77, 77, 78, 79, 80, 81, 81, 82, 83, 84, 85, 86, 87, 88, 89, 90, 91, 92, 93, 95, 2, 14, 3, 4, 16, 5, 18, 7, 8, 20, 9, 10, 11, 12, 24, 13, 26, 16, 29, 17, 18, 19, 20, 33, 35, 23, 24, 37, 25, 26, 39, 41, 29, 42, 30, 44, 32, 46, 34, 36, 37, 50, 38, 39, 52, 40, 41, 54, 43, 44, 57, 45, 46, 59, 47, 48, 61, 49, 50, 63, 52, 53, 67, 55, 70, 58, 59, 72, 60, 61, 74, 62, 63, 76, 64, 65, 66, 67, 80, 68, 69, 82, 71, 72, 74, 86, 75, 76, 88, 77, 78, 90, 79, 80, 81, 82, 94, 83, 96, 85, 86, 87, 88, 89, 90, 91, 92, 93, 94, 96];
ends = [2, 14, 3, 4, 16, 5, 18, 7, 8, 20, 9, 10, 11, 12, 24, 13, 26, 16, 29, 17, 18, 19, 20, 33, 35, 23, 24, 37, 25, 26, 39, 41, 29, 42, 30, 44, 32, 46, 34, 36, 37, 50, 38, 39, 52, 40, 41, 54, 43, 44, 57, 45, 46, 59, 47, 48, 61, 49, 50, 63, 52, 53, 67, 55, 70, 58, 59, 72, 60, 61, 74, 62, 63, 76, 64, 65, 66, 67, 80, 68, 69, 82, 71, 72, 74, 86, 75, 76, 88, 77, 78, 90, 79, 80, 81, 82, 94, 83, 96, 85, 86, 87, 88, 89, 90, 91, 92, 93, 94, 96, 1, 1, 2, 3, 3, 4, 5, 6, 7, 7, 8, 9, 10, 11, 11, 12, 13, 15, 15, 16, 17, 18, 19, 19, 21, 22, 23, 23, 24, 25, 25, 27, 28, 28, 29, 30, 31, 32, 33, 35, 36, 36, 37, 38, 38, 39, 40, 40, 42, 43, 43, 44, 45, 45, 46, 47, 47, 48, 49, 49, 51, 52, 53, 54, 56, 57, 58, 58, 59, 60, 60, 61, 62, 62, 63, 64, 65, 66, 66, 67, 68, 68, 70, 71, 73, 73, 74, 75, 75, 76, 77, 77, 78, 79, 80, 81, 81, 82, 83, 84, 85, 86, 87, 88, 89, 90, 91, 92, 93, 95];
weights = [5, 17, 1, 12, 12, 16, 3, 14, 12, 14, 13, 11, 10, 14, 9, 16, 15, 14, 10, 12, 2, 13, 11, 8, 16, 13, 13, 10, 18, 1, 9, 13, 6, 5, 3, 5, 18, 13, 1, 1, 15, 6, 8, 3, 3, 5, 11, 7, 3, 1, 3, 1, 5, 7, 11, 4, 5, 16, 9, 11, 15, 2, 18, 17, 1, 13, 9, 3, 17, 7, 16, 16, 10, 12, 6, 14, 1, 8, 11, 14, 17, 6, 12, 6, 15, 3, 4, 2, 11, 9, 2, 4, 2, 3, 5, 4, 2, 6, 10, 9, 7, 13, 16, 15, 13, 14, 8, 9, 6, 3, 5, 17, 1, 12, 12, 16, 3, 14, 12, 14, 13, 11, 10, 14, 9, 16, 15, 14, 10, 12, 2, 13, 11, 8, 16, 13, 13, 10, 18, 1, 9, 13, 6, 5, 3, 5, 18, 13, 1, 1, 15, 6, 8, 3, 3, 5, 11, 7, 3, 1, 3, 1, 5, 7, 11, 4, 5, 16, 9, 11, 15, 2, 18, 17, 1, 13, 9, 3, 17, 7, 16, 16, 10, 12, 6, 14, 1, 8, 11, 14, 17, 6, 12, 6, 15, 3, 4, 2, 11, 9, 2, 4, 2, 3, 5, 4, 2, 6, 10, 9, 7, 13, 16, 15, 13, 14, 8, 9, 6, 3];
start = 1;
end= 96;
tasks = 8;
task = array2d(1..tasks, 1..nodes, [1, 0, 0, 0, 0, 0, 0, 0, 0, 0, 0, 0, 0, 0, 0, 0, 0, 0, 0, 0, 0, 0, 0, 0, 0, 0, 0, 0, 0, 0, 0, 0, 1, 0, 0, 0, 0, 0, 0, 0, 0, 0, 0, 0, 0, 0, 0, 0, 0, 0, 0, 0, 0, 0, 0, 0, 0, 0, 0, 0, 0, 0, 0, 0, 0, 0, 0, 0, 0, 0, 0, 0, 0, 0, 0, 0, 0, 0, 0, 0, 0, 0, 0, 0, 0, 0, 0, 0, 0, 0, 0, 0, 0, 0, 0, 0, 0, 0, 0, 0, 0, 0, 0, 0, 0, 0, 0, 0, 0, 0, 0, 1, 0, 0, 0, 0, 0, 0, 0, 0, 0, 0, 0, 0, 0, 0, 0, 0, 0, 0, 0, 0, 0, 0, 0, 0, 0, 0, 0, 0, 0, 0, 0, 0, 0, 0, 0, 0, 0, 0, 0, 0, 0, 0, 1, 0, 0, 0, 0, 0, 0, 0, 0, 0, 0, 0, 0, 0, 0, 0, 0, 0, 0, 0, 0, 0, 0, 0, 0, 0, 0, 0, 0, 0, 0, 0, 0, 0, 0, 0, 0, 0, 0, 0, 0, 0, 0, 0, 0, 0, 0, 0, 0, 0, 0, 0, 0, 0, 0, 0, 0, 0, 0, 0, 0, 0, 1, 0, 0, 0, 0, 0, 0, 0, 0, 0, 0, 0, 0, 0, 0, 0, 0, 0, 0, 0, 0, 0, 0, 0, 0, 0, 0, 0, 0, 0, 0, 0, 0, 0, 0, 0, 0, 0, 0, 0, 0, 0, 0, 1, 0, 0, 0, 0, 0, 0, 0, 0, 0, 0, 0, 0, 0, 0, 0, 0, 0, 0, 0, 0, 0, 0, 0, 0, 0, 0, 0, 0, 0, 0, 0, 0, 0, 0, 0, 0, 0, 0, 0, 0, 0, 0, 0, 0, 0, 0, 0, 0, 0, 0, 0, 0, 0, 1, 0, 0, 0, 0, 0, 0, 0, 0, 0, 0, 0, 0, 0, 0, 0, 0, 0, 0, 0, 0, 0, 0, 0, 0, 0, 0, 0, 0, 0, 0, 0, 0, 0, 0, 0, 0, 0, 0, 0, 0, 0, 0, 0, 0, 0, 0, 0, 0, 0, 0, 0, 0, 0, 0, 0, 0, 0, 0, 0, 0, 0, 0, 0, 0, 0, 0, 1, 0, 0, 0, 0, 0, 0, 0, 0, 0, 0, 0, 0, 0, 0, 0, 0, 0, 0, 0, 0, 0, 0, 0, 0, 0, 0, 0, 0, 0, 0, 0, 0, 0, 0, 1, 0, 0, 0, 0, 0, 0, 0, 0, 0, 0, 0, 0, 0, 0, 0, 0, 0, 0, 0, 0, 0, 0, 0, 0, 0, 0, 0, 0, 0, 0, 0, 0, 0, 0, 0, 0, 0, 0, 0, 0, 0, 0, 0, 0, 0, 1, 0, 0, 0, 0, 0, 0, 0, 0, 0, 0, 0, 0, 0, 0, 0, 0, 0, 0, 0, 0, 0, 0, 0, 0, 0, 0, 0, 0, 0, 0, 0, 0, 0, 0, 0, 0, 0, 0, 0, 0, 0, 0, 0, 0, 0, 0, 0, 0, 0, 0, 0, 0, 0, 0, 0, 0, 0, 0, 0, 0, 0, 0, 0, 0, 0, 0, 0, 1, 0, 0, 0, 0, 0, 0, 0, 0, 0, 0, 0, 0, 0, 0, 0, 0, 0, 0, 0, 0, 0, 0, 0, 0, 0, 0, 0, 0, 0, 0, 0, 0, 0, 0, 0, 0, 0, 0, 1, 0, 0, 0, 0, 0, 0, 0, 0, 0, 0, 0, 0, 0, 0, 0, 0, 0, 0, 0, 0, 0, 0, 0, 0, 0, 0, 0, 0, 0, 0, 0, 0, 0, 0, 0, 0, 0, 0, 0, 0, 0, 0, 0, 0, 0, 0, 0, 0, 0, 0, 0, 0, 0, 0, 0, 0, 0, 0, 0, 1, 0, 0, 0, 0, 0, 0, 0, 0, 0, 0, 0, 0, 0, 0, 0, 0, 0, 0, 0, 0, 0, 0, 0, 0, 0, 0, 0, 0, 0, 0, 0, 0, 0, 0, 0, 0, 0, 0, 0, 0, 0, 1, 0, 0, 0, 0, 0, 0, 0, 0, 0, 0, 0, 0, 0, 0, 0, 0, 0, 0, 0, 0, 0, 0, 0, 0, 0, 0, 0, 0, 0, 0, 0, 0, 0, 0, 0, 0, 0, 0, 0, 0, 0, 0, 0, 0, 0, 0, 0, 0, 0, 0, 0, 0, 0, 0, 0, 0, 0, 0, 0, 0, 0, 0, 0, 0, 0, 0, 0, 0, 0, 1, 0, 0, 0, 0, 0, 0, 0, 0, 0, 0, 0, 0, 0, 0, 0, 0, 0, 1, 0, 0, 0, 0, 0, 0, 0, 0, 0]);
