graph_generation/data/sat/tcsp/hexagonal_lattice_N_6_task_random.txt
96 110 1 96 8
1 2 5
1 14 17
2 3 1
3 4 12
3 16 12
4 5 16
5 18 3
6 7 14
7 8 12
7 20 14
8 9 13
9 10 11
10 11 10
11 12 14
11 24 9
12 13 16
13 26 15
15 16 14
15 29 10
16 17 12
17 18 2
18 19 13
19 20 11
19 33 8
21 35 16
22 23 13
23 24 13
23 37 10
24 25 18
25 26 1
25 39 9
27 41 13
28 29 6
28 42 5
29 30 3
30 44 5
31 32 18
32 46 13
33 34 1
35 36 1
36 37 15
36 50 6
37 38 8
38 39 3
38 52 3
39 40 5
40 41 11
40 54 7
42 43 3
43 44 1
43 57 3
44 45 1
45 46 5
45 59 7
46 47 11
47 48 4
47 61 5
48 49 16
49 50 9
49 63 11
51 52 15
52 53 2
53 67 18
54 55 17
56 70 1
57 58 13
58 59 9
58 72 3
59 60 17
60 61 7
60 74 16
61 62 16
62 63 10
62 76 12
63 64 6
64 65 14
65 66 1
66 67 8
66 80 11
67 68 14
68 69 17
68 82 6
70 71 12
71 72 6
73 74 15
73 86 3
74 75 4
75 76 2
75 88 11
76 77 9
77 78 2
77 90 4
78 79 2
79 80 3
80 81 5
81 82 4
81 94 2
82 83 6
83 96 10
84 85 9
85 86 7
86 87 13
87 88 16
88 89 15
89 90 13
90 91 14
91 92 8
92 93 9
93 94 6
95 96 3
1 33
16 59
25 68
26 93
32 78
50 89
53 95
69 87
